dates = {'2022-03-22','2022-03-23','2022-03-24','2022-03-25','2022-03-26','2022-03-27','2022-03-28','2022-03-29','2022-03-30','2022-03-31','2022-04-01','2022-04-02','2022-04-03','2022-04-04','2022-04-05','2022-04-06','2022-04-07','2022-04-08','2022-04-09','2022-04-10','2022-04-11'};

daysOfWeek = [Tuesday,Wednesday,Thursday,Friday,Saturday,Sunday,Monday,Tuesday,Wednesday,Thursday,Friday,Saturday,Sunday,Monday,Tuesday,Wednesday,Thursday,Friday,Saturday,Sunday,Monday];

% For this week, how many people will be here.
numPeople = [89,89,89,89,89,89,89,89,89,89,89,89,89,89,89,89,89,89,89,89,89];

% Physical workers need 50 to 100 % more nutrients per day.
numPhysicalWorkers = [21.0,21.0,21.0,21.0,21.0,21.0,21.0,21.0,21.0,21.0,21.0,21.0,21.0,21.0,21.0,21.0,21.0,21.0
,21.0,21.0,21.0];

% Males need +25% more nutrients per day.
numMen = [75,75,75,75,75,75,75,75,75,75,75,75,75,75,75,75,75,75,75,75,75];

% Num people who do not eat categories. contains = {none, meat, milk, gluten, egg, nut, seed, sugars}
numRefusals = [| 0,2,1,0,0,0,0,0 | 0,2,1,0,0,0,0,0 | 0,2,1,0,0,0,0,0 | 0,2,1,0,0,0,0,0 | 0,2,1,0,0,0,0,0 | 0,2,1,0,0,0,0,0 | 0,2,1,0,0,0,0,0 | 0,2,1,0,0,0,0,0 | 0,2,1,0,0,0,0,0 | 0,2,1,0,0,0,0,0 | 0,2,1,0,0,0,0,0 | 0,2,1,0,0,0,0,0 | 0,2,1,0,0,0,0,0 | 0,2,1,0,0,0,0,0 | 0,2,1,0,0,0,0,0 | 0,2,1,0,0,0,0,0 | 0,2,1,0,0,0,0,0 | 0,2,1,0,0,0,0,0 | 0,2,1,0,0,0,0,0 | 0,2,1,0,0,0,0,0 | 0,2,1,0,0,0,0,0 |];

